14° run output:
{
    "Function": "kroA1000.tsp",
    "Problem dimension": [
        285,
        563,
        731,
        69,
        859,
        270,
        949,
        797,
        618,
        913,
        236,
        867,
        929,
        217,
        502,
        145,
        719,
        894,
        52,
        499,
        3,
        225,
        393,
        303,
        679,
        10,
        652,
        970,
        780,
        497,
        783,
        16,
        274,
        19,
        962,
        969,
        637,
        967,
        794,
        725,
        220,
        774,
        854,
        477,
        60,
        482,
        754,
        137,
        773,
        776,
        518,
        530,
        583,
        901,
        54,
        63,
        729,
        143,
        950,
        259,
        696,
        397,
        547,
        224,
        584,
        766,
        85,
        360,
        210,
        735,
        35,
        714,
        322,
        810,
        209,
        941,
        643,
        656,
        262,
        105,
        930,
        279,
        785,
        942,
        317,
        194,
        673,
        708,
        377,
        742,
        368,
        457,
        589,
        126,
        61,
        992,
        606,
        871,
        540,
        826,
        211,
        802,
        635,
        918,
        340,
        240,
        971,
        345,
        786,
        395,
        934,
        772,
        133,
        678,
        566,
        29,
        215,
        799,
        825,
        120,
        239,
        664,
        399,
        32,
        943,
        1,
        408,
        431,
        850,
        423,
        620,
        90,
        264,
        990,
        82,
        613,
        959,
        121,
        198,
        22,
        710,
        724,
        585,
        163,
        789,
        380,
        767,
        527,
        827,
        272,
        811,
        543,
        670,
        344,
        384,
        768,
        977,
        6,
        828,
        216,
        271,
        0,
        599,
        557,
        472,
        148,
        439,
        844,
        214,
        459,
        253,
        626,
        629,
        790,
        687,
        292,
        321,
        255,
        370,
        12,
        988,
        164,
        179,
        857,
        354,
        660,
        58,
        407,
        560,
        463,
        554,
        353,
        36,
        315,
        522,
        159,
        456,
        791,
        769,
        647,
        244,
        447,
        808,
        642,
        68,
        982,
        777,
        831,
        291,
        65,
        364,
        490,
        536,
        5,
        739,
        813,
        591,
        616,
        911,
        818,
        997,
        39,
        391,
        125,
        601,
        123,
        519,
        937,
        592,
        915,
        402,
        549,
        358,
        355,
        932,
        513,
        251,
        958,
        136,
        737,
        207,
        814,
        651,
        165,
        721,
        392,
        442,
        807,
        483,
        842,
        169,
        95,
        944,
        869,
        765,
        898,
        567,
        596,
        247,
        175,
        146,
        89,
        184,
        781,
        868,
        870,
        117,
        122,
        24,
        594,
        283,
        743,
        860,
        386,
        113,
        203,
        803,
        176,
        896,
        636,
        289,
        49,
        382,
        738,
        520,
        419,
        55,
        458,
        796,
        788,
        597,
        586,
        144,
        429,
        981,
        435,
        535,
        480,
        501,
        875,
        523,
        595,
        655,
        645,
        433,
        684,
        698,
        838,
        745,
        411,
        229,
        669,
        23,
        517,
        748,
        836,
        72,
        968,
        326,
        688,
        511,
        471,
        972,
        77,
        286,
        388,
        372,
        640,
        823,
        542,
        129,
        238,
        394,
        115,
        862,
        920,
        313,
        470,
        976,
        902,
        297,
        565,
        430,
        662,
        906,
        485,
        952,
        131,
        720,
        922,
        195,
        498,
        897,
        140,
        701,
        832,
        25,
        926,
        746,
        815,
        700,
        979,
        166,
        559,
        995,
        683,
        667,
        249,
        465,
        984,
        47,
        817,
        201,
        147,
        379,
        631,
        532,
        570,
        45,
        451,
        327,
        230,
        887,
        178,
        200,
        861,
        919,
        306,
        558,
        553,
        512,
        415,
        764,
        516,
        359,
        694,
        692,
        864,
        56,
        653,
        67,
        716,
        204,
        954,
        573,
        917,
        632,
        481,
        841,
        627,
        305,
        254,
        571,
        75,
        734,
        261,
        732,
        593,
        963,
        661,
        619,
        646,
        505,
        182,
        267,
        8,
        352,
        610,
        630,
        43,
        363,
        88,
        621,
        15,
        496,
        910,
        31,
        575,
        603,
        489,
        14,
        41,
        649,
        604,
        759,
        607,
        26,
        546,
        462,
        712,
        562,
        434,
        33,
        403,
        260,
        648,
        805,
        248,
        940,
        266,
        373,
        250,
        987,
        602,
        955,
        116,
        581,
        703,
        479,
        707,
        432,
        994,
        633,
        219,
        318,
        991,
        989,
        335,
        787,
        299,
        960,
        749,
        855,
        307,
        281,
        102,
        227,
        657,
        582,
        37,
        103,
        155,
        130,
        280,
        580,
        150,
        4,
        798,
        574,
        733,
        446,
        252,
        884,
        296,
        644,
        348,
        753,
        319,
        258,
        833,
        964,
        401,
        488,
        97,
        193,
        923,
        801,
        744,
        46,
        495,
        426,
        795,
        978,
        946,
        650,
        677,
        578,
        80,
        999,
        863,
        622,
        674,
        756,
        715,
        533,
        886,
        515,
        893,
        320,
        909,
        473,
        931,
        138,
        339,
        865,
        998,
        889,
        755,
        912,
        74,
        852,
        878,
        347,
        390,
        443,
        396,
        617,
        414,
        966,
        233,
        21,
        531,
        59,
        758,
        413,
        528,
        269,
        706,
        521,
        812,
        418,
        454,
        623,
        572,
        665,
        428,
        666,
        222,
        168,
        936,
        223,
        816,
        899,
        118,
        569,
        9,
        487,
        48,
        985,
        873,
        237,
        938,
        177,
        42,
        228,
        800,
        551,
        2,
        64,
        848,
        311,
        760,
        883,
        362,
        304,
        330,
        728,
        874,
        256,
        308,
        104,
        503,
        965,
        628,
        366,
        881,
        904,
        94,
        605,
        782,
        34,
        681,
        218,
        820,
        880,
        885,
        282,
        974,
        398,
        947,
        81,
        935,
        839,
        671,
        961,
        736,
        312,
        843,
        718,
        928,
        866,
        134,
        78,
        293,
        302,
        730,
        750,
        111,
        639,
        464,
        638,
        856,
        333,
        226,
        468,
        181,
        365,
        66,
        161,
        614,
        288,
        374,
        151,
        341,
        205,
        197,
        171,
        324,
        702,
        91,
        106,
        409,
        213,
        268,
        246,
        152,
        444,
        509,
        232,
        202,
        235,
        659,
        761,
        349,
        806,
        445,
        100,
        160,
        273,
        287,
        726,
        492,
        751,
        921,
        275,
        387,
        290,
        510,
        466,
        957,
        156,
        927,
        62,
        83,
        149,
        829,
        180,
        337,
        242,
        847,
        849,
        555,
        524,
        241,
        27,
        775,
        70,
        30,
        436,
        587,
        440,
        98,
        153,
        663,
        668,
        704,
        108,
        124,
        173,
        723,
        939,
        96,
        110,
        590,
        51,
        779,
        334,
        609,
        424,
        556,
        343,
        357,
        284,
        980,
        437,
        135,
        298,
        28,
        295,
        672,
        212,
        453,
        821,
        187,
        139,
        162,
        185,
        406,
        541,
        858,
        314,
        853,
        278,
        996,
        804,
        534,
        561,
        709,
        208,
        948,
        634,
        793,
        369,
        654,
        346,
        747,
        740,
        141,
        504,
        154,
        879,
        441,
        903,
        819,
        576,
        705,
        908,
        975,
        189,
        697,
        192,
        18,
        771,
        375,
        300,
        762,
        933,
        385,
        410,
        611,
        577,
        876,
        206,
        895,
        579,
        356,
        190,
        690,
        615,
        845,
        455,
        170,
        376,
        506,
        493,
        13,
        822,
        835,
        784,
        872,
        427,
        682,
        713,
        383,
        689,
        183,
        568,
        350,
        907,
        600,
        469,
        891,
        763,
        840,
        186,
        44,
        695,
        461,
        741,
        552,
        245,
        834,
        544,
        890,
        87,
        417,
        301,
        550,
        564,
        389,
        658,
        792,
        277,
        119,
        693,
        84,
        381,
        508,
        675,
        328,
        529,
        888,
        263,
        316,
        421,
        336,
        757,
        323,
        114,
        892,
        686,
        548,
        243,
        491,
        342,
        514,
        7,
        92,
        484,
        770,
        983,
        450,
        416,
        680,
        73,
        199,
        265,
        717,
        641,
        486,
        877,
        438,
        107,
        727,
        331,
        404,
        676,
        474,
        325,
        752,
        425,
        809,
        167,
        71,
        953,
        378,
        332,
        371,
        101,
        500,
        174,
        86,
        914,
        460,
        172,
        99,
        188,
        294,
        53,
        588,
        537,
        367,
        191,
        329,
        412,
        157,
        846,
        993,
        900,
        76,
        691,
        112,
        128,
        538,
        79,
        449,
        231,
        467,
        221,
        93,
        525,
        448,
        142,
        196,
        420,
        40,
        234,
        400,
        830,
        338,
        545,
        309,
        405,
        951,
        711,
        507,
        310,
        699,
        851,
        837,
        351,
        452,
        925,
        478,
        722,
        50,
        11,
        17,
        257,
        422,
        924,
        57,
        625,
        612,
        38,
        361,
        986,
        598,
        685,
        905,
        494,
        526,
        824,
        956,
        624,
        109,
        475,
        916,
        882,
        945,
        539,
        127,
        778,
        476,
        158,
        608,
        276,
        132,
        973,
        20
    ],
    "Global Optimum": 0,
    "Algorithm": "Genetic algorithm",
    "Parameters": {
        "population": 30,
        "offspring": 30,
        "mutation probability": 0.001,
        "crossover probability": 0.9
    },
    "Fitness": 1375771,
    "Solution": [
        285,
        563,
        731,
        69,
        859,
        270,
        949,
        797,
        618,
        913,
        236,
        867,
        929,
        217,
        502,
        145,
        719,
        894,
        52,
        499,
        3,
        225,
        393,
        303,
        679,
        10,
        652,
        970,
        780,
        497,
        783,
        16,
        274,
        19,
        962,
        969,
        637,
        967,
        794,
        725,
        220,
        774,
        854,
        477,
        60,
        482,
        754,
        137,
        773,
        776,
        518,
        530,
        583,
        901,
        54,
        63,
        729,
        143,
        950,
        259,
        696,
        397,
        547,
        224,
        584,
        766,
        85,
        360,
        210,
        735,
        35,
        714,
        322,
        810,
        209,
        941,
        643,
        656,
        262,
        105,
        930,
        279,
        785,
        942,
        317,
        194,
        673,
        708,
        377,
        742,
        368,
        457,
        589,
        126,
        61,
        992,
        606,
        871,
        540,
        826,
        211,
        802,
        635,
        918,
        340,
        240,
        971,
        345,
        786,
        395,
        934,
        772,
        133,
        678,
        566,
        29,
        215,
        799,
        825,
        120,
        239,
        664,
        399,
        32,
        943,
        1,
        408,
        431,
        850,
        423,
        620,
        90,
        264,
        990,
        82,
        613,
        959,
        121,
        198,
        22,
        710,
        724,
        585,
        163,
        789,
        380,
        767,
        527,
        827,
        272,
        811,
        543,
        670,
        344,
        384,
        768,
        977,
        6,
        828,
        216,
        271,
        0,
        599,
        557,
        472,
        148,
        439,
        844,
        214,
        459,
        253,
        626,
        629,
        790,
        687,
        292,
        321,
        255,
        370,
        12,
        988,
        164,
        179,
        857,
        354,
        660,
        58,
        407,
        560,
        463,
        554,
        353,
        36,
        315,
        522,
        159,
        456,
        791,
        769,
        647,
        244,
        447,
        808,
        642,
        68,
        982,
        777,
        831,
        291,
        65,
        364,
        490,
        536,
        5,
        739,
        813,
        591,
        616,
        911,
        818,
        997,
        39,
        391,
        125,
        601,
        123,
        519,
        937,
        592,
        915,
        402,
        549,
        358,
        355,
        932,
        513,
        251,
        958,
        136,
        737,
        207,
        814,
        651,
        165,
        721,
        392,
        442,
        807,
        483,
        842,
        169,
        95,
        944,
        869,
        765,
        898,
        567,
        596,
        247,
        175,
        146,
        89,
        184,
        781,
        868,
        870,
        117,
        122,
        24,
        594,
        283,
        743,
        860,
        386,
        113,
        203,
        803,
        176,
        896,
        636,
        289,
        49,
        382,
        738,
        520,
        419,
        55,
        458,
        796,
        788,
        597,
        586,
        144,
        429,
        981,
        435,
        535,
        480,
        501,
        875,
        523,
        595,
        655,
        645,
        433,
        684,
        698,
        838,
        745,
        411,
        229,
        669,
        23,
        517,
        748,
        836,
        72,
        968,
        326,
        688,
        511,
        471,
        972,
        77,
        286,
        388,
        372,
        640,
        823,
        542,
        129,
        238,
        394,
        115,
        862,
        920,
        313,
        470,
        976,
        902,
        297,
        565,
        430,
        662,
        906,
        485,
        952,
        131,
        720,
        922,
        195,
        498,
        897,
        140,
        701,
        832,
        25,
        926,
        746,
        815,
        700,
        979,
        166,
        559,
        995,
        683,
        667,
        249,
        465,
        984,
        47,
        817,
        201,
        147,
        379,
        631,
        532,
        570,
        45,
        451,
        327,
        230,
        887,
        178,
        200,
        861,
        919,
        306,
        558,
        553,
        512,
        415,
        764,
        516,
        359,
        694,
        692,
        864,
        56,
        653,
        67,
        716,
        204,
        954,
        573,
        917,
        632,
        481,
        841,
        627,
        305,
        254,
        571,
        75,
        734,
        261,
        732,
        593,
        963,
        661,
        619,
        646,
        505,
        182,
        267,
        8,
        352,
        610,
        630,
        43,
        363,
        88,
        621,
        15,
        496,
        910,
        31,
        575,
        603,
        489,
        14,
        41,
        649,
        604,
        759,
        607,
        26,
        546,
        462,
        712,
        562,
        434,
        33,
        403,
        260,
        648,
        805,
        248,
        940,
        266,
        373,
        250,
        987,
        602,
        955,
        116,
        581,
        703,
        479,
        707,
        432,
        994,
        633,
        219,
        318,
        991,
        989,
        335,
        787,
        299,
        960,
        749,
        855,
        307,
        281,
        102,
        227,
        657,
        582,
        37,
        103,
        155,
        130,
        280,
        580,
        150,
        4,
        798,
        574,
        733,
        446,
        252,
        884,
        296,
        644,
        348,
        753,
        319,
        258,
        833,
        964,
        401,
        488,
        97,
        193,
        923,
        801,
        744,
        46,
        495,
        426,
        795,
        978,
        946,
        650,
        677,
        578,
        80,
        999,
        863,
        622,
        674,
        756,
        715,
        533,
        886,
        515,
        893,
        320,
        909,
        473,
        931,
        138,
        339,
        865,
        998,
        889,
        755,
        912,
        74,
        852,
        878,
        347,
        390,
        443,
        396,
        617,
        414,
        966,
        233,
        21,
        531,
        59,
        758,
        413,
        528,
        269,
        706,
        521,
        812,
        418,
        454,
        623,
        572,
        665,
        428,
        666,
        222,
        168,
        936,
        223,
        816,
        899,
        118,
        569,
        9,
        487,
        48,
        985,
        873,
        237,
        938,
        177,
        42,
        228,
        800,
        551,
        2,
        64,
        848,
        311,
        760,
        883,
        362,
        304,
        330,
        728,
        874,
        256,
        308,
        104,
        503,
        965,
        628,
        366,
        881,
        904,
        94,
        605,
        782,
        34,
        681,
        218,
        820,
        880,
        885,
        282,
        974,
        398,
        947,
        81,
        935,
        839,
        671,
        961,
        736,
        312,
        843,
        718,
        928,
        866,
        134,
        78,
        293,
        302,
        730,
        750,
        111,
        639,
        464,
        638,
        856,
        333,
        226,
        468,
        181,
        365,
        66,
        161,
        614,
        288,
        374,
        151,
        341,
        205,
        197,
        171,
        324,
        702,
        91,
        106,
        409,
        213,
        268,
        246,
        152,
        444,
        509,
        232,
        202,
        235,
        659,
        761,
        349,
        806,
        445,
        100,
        160,
        273,
        287,
        726,
        492,
        751,
        921,
        275,
        387,
        290,
        510,
        466,
        957,
        156,
        927,
        62,
        83,
        149,
        829,
        180,
        337,
        242,
        847,
        849,
        555,
        524,
        241,
        27,
        775,
        70,
        30,
        436,
        587,
        440,
        98,
        153,
        663,
        668,
        704,
        108,
        124,
        173,
        723,
        939,
        96,
        110,
        590,
        51,
        779,
        334,
        609,
        424,
        556,
        343,
        357,
        284,
        980,
        437,
        135,
        298,
        28,
        295,
        672,
        212,
        453,
        821,
        187,
        139,
        162,
        185,
        406,
        541,
        858,
        314,
        853,
        278,
        996,
        804,
        534,
        561,
        709,
        208,
        948,
        634,
        793,
        369,
        654,
        346,
        747,
        740,
        141,
        504,
        154,
        879,
        441,
        903,
        819,
        576,
        705,
        908,
        975,
        189,
        697,
        192,
        18,
        771,
        375,
        300,
        762,
        933,
        385,
        410,
        611,
        577,
        876,
        206,
        895,
        579,
        356,
        190,
        690,
        615,
        845,
        455,
        170,
        376,
        506,
        493,
        13,
        822,
        835,
        784,
        872,
        427,
        682,
        713,
        383,
        689,
        183,
        568,
        350,
        907,
        600,
        469,
        891,
        763,
        840,
        186,
        44,
        695,
        461,
        741,
        552,
        245,
        834,
        544,
        890,
        87,
        417,
        301,
        550,
        564,
        389,
        658,
        792,
        277,
        119,
        693,
        84,
        381,
        508,
        675,
        328,
        529,
        888,
        263,
        316,
        421,
        336,
        757,
        323,
        114,
        892,
        686,
        548,
        243,
        491,
        342,
        514,
        7,
        92,
        484,
        770,
        983,
        450,
        416,
        680,
        73,
        199,
        265,
        717,
        641,
        486,
        877,
        438,
        107,
        727,
        331,
        404,
        676,
        474,
        325,
        752,
        425,
        809,
        167,
        71,
        953,
        378,
        332,
        371,
        101,
        500,
        174,
        86,
        914,
        460,
        172,
        99,
        188,
        294,
        53,
        588,
        537,
        367,
        191,
        329,
        412,
        157,
        846,
        993,
        900,
        76,
        691,
        112,
        128,
        538,
        79,
        449,
        231,
        467,
        221,
        93,
        525,
        448,
        142,
        196,
        420,
        40,
        234,
        400,
        830,
        338,
        545,
        309,
        405,
        951,
        711,
        507,
        310,
        699,
        851,
        837,
        351,
        452,
        925,
        478,
        722,
        50,
        11,
        17,
        257,
        422,
        924,
        57,
        625,
        612,
        38,
        361,
        986,
        598,
        685,
        905,
        494,
        526,
        824,
        956,
        624,
        109,
        475,
        916,
        882,
        945,
        539,
        127,
        778,
        476,
        158,
        608,
        276,
        132,
        973,
        20
    ],
    "Nb of functions evaluations": 200010,
    "Computational time in seconds": 2914.28466629982,
    "Stopping criterion in evaluations": 200000
}